formal_watchdog/watchdog/model/design_smt2.smt2
; SMT-LIBv2 description generated by Yosys 0.54 (git sha1 db72ec3bd, g++ 15.2.1 -march=x86-64 -mtune=generic -O2 -fno-plt -fexceptions -fstack-clash-protection -fcf-protection -fno-omit-frame-pointer -mno-omit-leaf-frame-pointer -ffile-prefix-map=/build/yosys/src=/usr/src/debug/yosys -fPIC -O3)
; yosys-smt2-module watchdog
(declare-sort |watchdog_s| 0)
(declare-fun |watchdog_is| (|watchdog_s|) Bool)
; yosys-smt2-anyinit watchdog#0 2 top.sv:12.1-23.4
; yosys-smt2-witness {"offset": 0, "path": ["\\_witness_", "\\anyinit_procdff_100"], "smtname": 0, "smtoffset": 0, "type": "init", "width": 2}
(declare-fun |watchdog#0| (|watchdog_s|) (_ BitVec 2)) ; \_witness_.anyinit_procdff_100
(declare-fun |watchdog#1| (|watchdog_s|) (_ BitVec 1)) ; \reset_n
(define-fun |watchdog#2| ((state |watchdog_s|)) (_ BitVec 2) (ite (= ((_ extract 0 0) (|watchdog#1| state)) #b1) (|watchdog#0| state) #b00)) ; \state
; yosys-smt2-output state 2
; yosys-smt2-wire state 2
(define-fun |watchdog_n state| ((state |watchdog_s|)) (_ BitVec 2) (|watchdog#2| state))
; yosys-smt2-input reset_n 1
; yosys-smt2-wire reset_n 1
; yosys-smt2-witness {"offset": 0, "path": ["\\reset_n"], "smtname": "reset_n", "smtoffset": 0, "type": "input", "width": 1}
(define-fun |watchdog_n reset_n| ((state |watchdog_s|)) Bool (= ((_ extract 0 0) (|watchdog#1| state)) #b1))
(declare-fun |watchdog#3| (|watchdog_s|) Bool) ; \error_flag
; yosys-smt2-input error_flag 1
; yosys-smt2-wire error_flag 1
; yosys-smt2-witness {"offset": 0, "path": ["\\error_flag"], "smtname": "error_flag", "smtoffset": 0, "type": "input", "width": 1}
(define-fun |watchdog_n error_flag| ((state |watchdog_s|)) Bool (|watchdog#3| state))
(declare-fun |watchdog#4| (|watchdog_s|) Bool) ; \clk
; yosys-smt2-input clk 1
; yosys-smt2-wire clk 1
; yosys-smt2-clock clk posedge
; yosys-smt2-witness {"offset": 0, "path": ["\\clk"], "smtname": "clk", "smtoffset": 0, "type": "posedge", "width": 1}
; yosys-smt2-witness {"offset": 0, "path": ["\\clk"], "smtname": "clk", "smtoffset": 0, "type": "input", "width": 1}
(define-fun |watchdog_n clk| ((state |watchdog_s|)) Bool (|watchdog#4| state))
; yosys-smt2-register _witness_.anyinit_procdff_100 2
; yosys-smt2-wire _witness_.anyinit_procdff_100 2
(define-fun |watchdog_n _witness_.anyinit_procdff_100| ((state |watchdog_s|)) (_ BitVec 2) (|watchdog#0| state))
(define-fun |watchdog#5| ((state |watchdog_s|)) (_ BitVec 1) (bvnot (ite (|watchdog#4| state) #b1 #b0))) ; $auto$rtlil.cc:2957:Not$182
; yosys-smt2-assume 0 $auto$formalff.cc:981:execute$183
(define-fun |watchdog_u 0| ((state |watchdog_s|)) Bool (or (= ((_ extract 0 0) (|watchdog#5| state)) #b1) (not true))) ; $auto$formalff.cc:981:execute$183
(define-fun |watchdog#6| ((state |watchdog_s|)) (_ BitVec 2) (ite (|watchdog#3| state) (|watchdog#2| state) #b00)) ; $procmux$76_Y
(define-fun |watchdog#7| ((state |watchdog_s|)) (_ BitVec 2) (ite (|watchdog#3| state) #b10 (|watchdog#2| state))) ; $procmux$80_Y
(define-fun |watchdog#8| ((state |watchdog_s|)) (_ BitVec 2) (ite (|watchdog#3| state) (|watchdog#2| state) #b01)) ; $procmux$83_Y
(define-fun |watchdog#9| ((state |watchdog_s|)) Bool (= (|watchdog#2| state) #b10)) ; $procmux$79_CMP
(define-fun |watchdog#10| ((state |watchdog_s|)) Bool (= (|watchdog#2| state) #b01)) ; $procmux$82_CMP
(define-fun |watchdog#11| ((state |watchdog_s|)) Bool (not (or  (= ((_ extract 0 0) (|watchdog#2| state)) #b1) (= ((_ extract 1 1) (|watchdog#2| state)) #b1)))) ; $procmux$85_CMP
(define-fun |watchdog#12| ((state |watchdog_s|)) (_ BitVec 2) (ite (|watchdog#11| state) (|watchdog#8| state) (ite (|watchdog#10| state) (|watchdog#7| state) (ite (|watchdog#9| state) (|watchdog#6| state) #b00)))) ; $0\state[1:0]
(define-fun |watchdog#13| ((state |watchdog_s|)) (_ BitVec 2) (ite (= ((_ extract 0 0) (|watchdog#1| state)) #b1) (|watchdog#12| state) #b00)) ; $auto$rtlil.cc:3092:Mux$169
(define-fun |watchdog_a| ((state |watchdog_s|)) Bool true)
(define-fun |watchdog_u| ((state |watchdog_s|)) Bool 
  (|watchdog_u 0| state)
)
(define-fun |watchdog_i| ((state |watchdog_s|)) Bool true)
(define-fun |watchdog_h| ((state |watchdog_s|)) Bool true)
(define-fun |watchdog_t| ((state |watchdog_s|) (next_state |watchdog_s|)) Bool 
  (= (|watchdog#13| state) (|watchdog#0| next_state)) ; $procdff$100 \_witness_.anyinit_procdff_100
) ; end of module watchdog
; yosys-smt2-module watchdog_formal
(declare-sort |watchdog_formal_s| 0)
(declare-fun |watchdog_formal_is| (|watchdog_formal_s|) Bool)
; yosys-smt2-cell watchdog dut
; yosys-smt2-witness {"path": ["\\dut"], "smtname": "dut", "type": "cell"}
(declare-fun |watchdog_formal#0| (|watchdog_formal_s|) (_ BitVec 2)) ; \state
(declare-fun |watchdog_formal_h dut| (|watchdog_formal_s|) |watchdog_s|)
; yosys-smt2-wire state 2
(define-fun |watchdog_formal_n state| ((state |watchdog_formal_s|)) (_ BitVec 2) (|watchdog_formal#0| state))
; yosys-smt2-anyseq watchdog_formal#1 1 $auto$setundef.cc:348:execute$174
; yosys-smt2-witness {"offset": 0, "path": ["\\reset_n"], "smtname": 1, "smtoffset": 0, "type": "seq", "width": 1}
(declare-fun |watchdog_formal#1| (|watchdog_formal_s|) (_ BitVec 1)) ; \reset_n
; yosys-smt2-wire reset_n 1
(define-fun |watchdog_formal_n reset_n| ((state |watchdog_formal_s|)) Bool (= ((_ extract 0 0) (|watchdog_formal#1| state)) #b1))
; yosys-smt2-witness {"offset": 0, "path": ["\\f_past_valid"], "smtname": 2, "smtoffset": 0, "type": "reg", "width": 1}
(declare-fun |watchdog_formal#2| (|watchdog_formal_s|) (_ BitVec 1)) ; \f_past_valid
; yosys-smt2-register f_past_valid 1
; yosys-smt2-wire f_past_valid 1
(define-fun |watchdog_formal_n f_past_valid| ((state |watchdog_formal_s|)) Bool (= ((_ extract 0 0) (|watchdog_formal#2| state)) #b1))
; yosys-smt2-anyseq watchdog_formal#3 1 $auto$setundef.cc:348:execute$176
; yosys-smt2-witness {"offset": 0, "path": ["\\error_flag"], "smtname": 3, "smtoffset": 0, "type": "seq", "width": 1}
(declare-fun |watchdog_formal#3| (|watchdog_formal_s|) (_ BitVec 1)) ; \error_flag
; yosys-smt2-wire error_flag 1
(define-fun |watchdog_formal_n error_flag| ((state |watchdog_formal_s|)) Bool (= ((_ extract 0 0) (|watchdog_formal#3| state)) #b1))
; yosys-smt2-anyseq watchdog_formal#4 1 $auto$setundef.cc:348:execute$172
; yosys-smt2-witness {"offset": 0, "path": ["\\clk"], "smtname": 4, "smtoffset": 0, "type": "seq", "width": 1}
(declare-fun |watchdog_formal#4| (|watchdog_formal_s|) (_ BitVec 1)) ; \clk
; yosys-smt2-wire clk 1
; yosys-smt2-clock clk posedge
(define-fun |watchdog_formal_n clk| ((state |watchdog_formal_s|)) Bool (= ((_ extract 0 0) (|watchdog_formal#4| state)) #b1))
; yosys-smt2-anyinit watchdog_formal#5 1 props.sv:31.3-53.6
; yosys-smt2-witness {"offset": 0, "path": ["\\_witness_", "\\anyinit_procdff_94"], "smtname": 5, "smtoffset": 0, "type": "init", "width": 1}
(declare-fun |watchdog_formal#5| (|watchdog_formal_s|) (_ BitVec 1)) ; \_witness_.anyinit_procdff_94
; yosys-smt2-register _witness_.anyinit_procdff_94 1
; yosys-smt2-wire _witness_.anyinit_procdff_94 1
(define-fun |watchdog_formal_n _witness_.anyinit_procdff_94| ((state |watchdog_formal_s|)) Bool (= ((_ extract 0 0) (|watchdog_formal#5| state)) #b1))
; yosys-smt2-anyinit watchdog_formal#6 2 props.sv:31.3-53.6
; yosys-smt2-witness {"offset": 0, "path": ["\\_witness_", "\\anyinit_procdff_93"], "smtname": 6, "smtoffset": 0, "type": "init", "width": 2}
(declare-fun |watchdog_formal#6| (|watchdog_formal_s|) (_ BitVec 2)) ; \_witness_.anyinit_procdff_93
; yosys-smt2-register _witness_.anyinit_procdff_93 2
; yosys-smt2-wire _witness_.anyinit_procdff_93 2
(define-fun |watchdog_formal_n _witness_.anyinit_procdff_93| ((state |watchdog_formal_s|)) (_ BitVec 2) (|watchdog_formal#6| state))
; yosys-smt2-anyinit watchdog_formal#7 1 props.sv:31.3-53.6
; yosys-smt2-witness {"offset": 0, "path": ["\\_witness_", "\\anyinit_procdff_92"], "smtname": 7, "smtoffset": 0, "type": "init", "width": 1}
(declare-fun |watchdog_formal#7| (|watchdog_formal_s|) (_ BitVec 1)) ; \_witness_.anyinit_procdff_92
; yosys-smt2-register _witness_.anyinit_procdff_92 1
; yosys-smt2-wire _witness_.anyinit_procdff_92 1
(define-fun |watchdog_formal_n _witness_.anyinit_procdff_92| ((state |watchdog_formal_s|)) Bool (= ((_ extract 0 0) (|watchdog_formal#7| state)) #b1))
; yosys-smt2-anyinit watchdog_formal#8 1 props.sv:31.3-53.6
; yosys-smt2-witness {"offset": 0, "path": ["\\_witness_", "\\anyinit_procdff_91"], "smtname": 8, "smtoffset": 0, "type": "init", "width": 1}
(declare-fun |watchdog_formal#8| (|watchdog_formal_s|) (_ BitVec 1)) ; \_witness_.anyinit_procdff_91
; yosys-smt2-register _witness_.anyinit_procdff_91 1
; yosys-smt2-wire _witness_.anyinit_procdff_91 1
(define-fun |watchdog_formal_n _witness_.anyinit_procdff_91| ((state |watchdog_formal_s|)) Bool (= ((_ extract 0 0) (|watchdog_formal#8| state)) #b1))
; yosys-smt2-anyinit watchdog_formal#9 2 props.sv:31.3-53.6
; yosys-smt2-witness {"offset": 0, "path": ["\\_witness_", "\\anyinit_procdff_90"], "smtname": 9, "smtoffset": 0, "type": "init", "width": 2}
(declare-fun |watchdog_formal#9| (|watchdog_formal_s|) (_ BitVec 2)) ; \_witness_.anyinit_procdff_90
; yosys-smt2-register _witness_.anyinit_procdff_90 2
; yosys-smt2-wire _witness_.anyinit_procdff_90 2
(define-fun |watchdog_formal_n _witness_.anyinit_procdff_90| ((state |watchdog_formal_s|)) (_ BitVec 2) (|watchdog_formal#9| state))
; yosys-smt2-anyinit watchdog_formal#10 1 props.sv:31.3-53.6
; yosys-smt2-witness {"offset": 0, "path": ["\\_witness_", "\\anyinit_procdff_89"], "smtname": 10, "smtoffset": 0, "type": "init", "width": 1}
(declare-fun |watchdog_formal#10| (|watchdog_formal_s|) (_ BitVec 1)) ; \_witness_.anyinit_procdff_89
; yosys-smt2-register _witness_.anyinit_procdff_89 1
; yosys-smt2-wire _witness_.anyinit_procdff_89 1
(define-fun |watchdog_formal_n _witness_.anyinit_procdff_89| ((state |watchdog_formal_s|)) Bool (= ((_ extract 0 0) (|watchdog_formal#10| state)) #b1))
; yosys-smt2-anyinit watchdog_formal#11 1 props.sv:31.3-53.6
; yosys-smt2-witness {"offset": 0, "path": ["\\_witness_", "\\anyinit_procdff_88"], "smtname": 11, "smtoffset": 0, "type": "init", "width": 1}
(declare-fun |watchdog_formal#11| (|watchdog_formal_s|) (_ BitVec 1)) ; \_witness_.anyinit_procdff_88
; yosys-smt2-register _witness_.anyinit_procdff_88 1
; yosys-smt2-wire _witness_.anyinit_procdff_88 1
(define-fun |watchdog_formal_n _witness_.anyinit_procdff_88| ((state |watchdog_formal_s|)) Bool (= ((_ extract 0 0) (|watchdog_formal#11| state)) #b1))
; yosys-smt2-anyinit watchdog_formal#12 2 props.sv:31.3-53.6
; yosys-smt2-witness {"offset": 0, "path": ["\\_witness_", "\\anyinit_procdff_87"], "smtname": 12, "smtoffset": 0, "type": "init", "width": 2}
(declare-fun |watchdog_formal#12| (|watchdog_formal_s|) (_ BitVec 2)) ; \_witness_.anyinit_procdff_87
; yosys-smt2-register _witness_.anyinit_procdff_87 2
; yosys-smt2-wire _witness_.anyinit_procdff_87 2
(define-fun |watchdog_formal_n _witness_.anyinit_procdff_87| ((state |watchdog_formal_s|)) (_ BitVec 2) (|watchdog_formal#12| state))
; yosys-smt2-anyinit watchdog_formal#13 1 props.sv:31.3-53.6
; yosys-smt2-witness {"offset": 0, "path": ["\\_witness_", "\\anyinit_procdff_86"], "smtname": 13, "smtoffset": 0, "type": "init", "width": 1}
(declare-fun |watchdog_formal#13| (|watchdog_formal_s|) (_ BitVec 1)) ; \_witness_.anyinit_procdff_86
; yosys-smt2-register _witness_.anyinit_procdff_86 1
; yosys-smt2-wire _witness_.anyinit_procdff_86 1
(define-fun |watchdog_formal_n _witness_.anyinit_procdff_86| ((state |watchdog_formal_s|)) Bool (= ((_ extract 0 0) (|watchdog_formal#13| state)) #b1))
; yosys-smt2-witness {"offset": 0, "path": ["$auto$async2sync.cc:110:execute$123"], "smtname": 14, "smtoffset": 0, "type": "reg", "width": 1}
(declare-fun |watchdog_formal#14| (|watchdog_formal_s|) (_ BitVec 1)) ; $auto$async2sync.cc:110:execute$123
; yosys-smt2-register $auto$async2sync.cc:110:execute$123 1
(define-fun |watchdog_formal_n $auto$async2sync.cc:110:execute$123| ((state |watchdog_formal_s|)) Bool (= ((_ extract 0 0) (|watchdog_formal#14| state)) #b1))
; yosys-smt2-witness {"offset": 0, "path": ["$auto$async2sync.cc:110:execute$117"], "smtname": 15, "smtoffset": 0, "type": "reg", "width": 1}
(declare-fun |watchdog_formal#15| (|watchdog_formal_s|) (_ BitVec 1)) ; $auto$async2sync.cc:110:execute$117
; yosys-smt2-register $auto$async2sync.cc:110:execute$117 1
(define-fun |watchdog_formal_n $auto$async2sync.cc:110:execute$117| ((state |watchdog_formal_s|)) Bool (= ((_ extract 0 0) (|watchdog_formal#15| state)) #b1))
; yosys-smt2-witness {"offset": 0, "path": ["$auto$async2sync.cc:110:execute$111"], "smtname": 16, "smtoffset": 0, "type": "reg", "width": 1}
(declare-fun |watchdog_formal#16| (|watchdog_formal_s|) (_ BitVec 1)) ; $auto$async2sync.cc:110:execute$111
; yosys-smt2-register $auto$async2sync.cc:110:execute$111 1
(define-fun |watchdog_formal_n $auto$async2sync.cc:110:execute$111| ((state |watchdog_formal_s|)) Bool (= ((_ extract 0 0) (|watchdog_formal#16| state)) #b1))
; yosys-smt2-witness {"offset": 0, "path": ["$auto$async2sync.cc:110:execute$105"], "smtname": 17, "smtoffset": 0, "type": "reg", "width": 1}
(declare-fun |watchdog_formal#17| (|watchdog_formal_s|) (_ BitVec 1)) ; $auto$async2sync.cc:110:execute$105
; yosys-smt2-register $auto$async2sync.cc:110:execute$105 1
(define-fun |watchdog_formal_n $auto$async2sync.cc:110:execute$105| ((state |watchdog_formal_s|)) Bool (= ((_ extract 0 0) (|watchdog_formal#17| state)) #b1))
; yosys-smt2-witness {"offset": 0, "path": ["$auto$async2sync.cc:101:execute$125"], "smtname": 18, "smtoffset": 0, "type": "reg", "width": 1}
(declare-fun |watchdog_formal#18| (|watchdog_formal_s|) (_ BitVec 1)) ; $auto$async2sync.cc:101:execute$125
; yosys-smt2-register $auto$async2sync.cc:101:execute$125 1
(define-fun |watchdog_formal_n $auto$async2sync.cc:101:execute$125| ((state |watchdog_formal_s|)) Bool (= ((_ extract 0 0) (|watchdog_formal#18| state)) #b1))
; yosys-smt2-witness {"offset": 0, "path": ["$auto$async2sync.cc:101:execute$119"], "smtname": 19, "smtoffset": 0, "type": "reg", "width": 1}
(declare-fun |watchdog_formal#19| (|watchdog_formal_s|) (_ BitVec 1)) ; $auto$async2sync.cc:101:execute$119
; yosys-smt2-register $auto$async2sync.cc:101:execute$119 1
(define-fun |watchdog_formal_n $auto$async2sync.cc:101:execute$119| ((state |watchdog_formal_s|)) Bool (= ((_ extract 0 0) (|watchdog_formal#19| state)) #b1))
; yosys-smt2-witness {"offset": 0, "path": ["$auto$async2sync.cc:101:execute$113"], "smtname": 20, "smtoffset": 0, "type": "reg", "width": 1}
(declare-fun |watchdog_formal#20| (|watchdog_formal_s|) (_ BitVec 1)) ; $auto$async2sync.cc:101:execute$113
; yosys-smt2-register $auto$async2sync.cc:101:execute$113 1
(define-fun |watchdog_formal_n $auto$async2sync.cc:101:execute$113| ((state |watchdog_formal_s|)) Bool (= ((_ extract 0 0) (|watchdog_formal#20| state)) #b1))
; yosys-smt2-witness {"offset": 0, "path": ["$auto$async2sync.cc:101:execute$107"], "smtname": 21, "smtoffset": 0, "type": "reg", "width": 1}
(declare-fun |watchdog_formal#21| (|watchdog_formal_s|) (_ BitVec 1)) ; $auto$async2sync.cc:101:execute$107
; yosys-smt2-register $auto$async2sync.cc:101:execute$107 1
(define-fun |watchdog_formal_n $auto$async2sync.cc:101:execute$107| ((state |watchdog_formal_s|)) Bool (= ((_ extract 0 0) (|watchdog_formal#21| state)) #b1))
(define-fun |watchdog_formal#22| ((state |watchdog_formal_s|)) (_ BitVec 1) (bvnot (|watchdog_formal#4| state))) ; $auto$rtlil.cc:2957:Not$179
; yosys-smt2-assume 0 $auto$formalff.cc:981:execute$180
(define-fun |watchdog_formal_u 0| ((state |watchdog_formal_s|)) Bool (or (= ((_ extract 0 0) (|watchdog_formal#22| state)) #b1) (not true))) ; $auto$formalff.cc:981:execute$180
; yosys-smt2-assume 1 _witness_.check_assume_props_sv_21_15 props.sv:21.5-21.41
(define-fun |watchdog_formal_u 1| ((state |watchdog_formal_s|)) Bool (or true (not true))) ; _witness_.check_assume_props_sv_21_15
; yosys-smt2-assert 0 _witness_.check_assert_props_sv_52_54 props.sv:52.5-52.78
(define-fun |watchdog_formal_a 0| ((state |watchdog_formal_s|)) Bool (or (= ((_ extract 0 0) (|watchdog_formal#17| state)) #b1) (not (= ((_ extract 0 0) (|watchdog_formal#2| state)) #b1)))) ; _witness_.check_assert_props_sv_52_54
; yosys-smt2-assert 1 _witness_.check_assert_props_sv_48_52 props.sv:48.9-48.36
(define-fun |watchdog_formal_a 1| ((state |watchdog_formal_s|)) Bool (or (= ((_ extract 0 0) (|watchdog_formal#16| state)) #b1) (not (= ((_ extract 0 0) (|watchdog_formal#21| state)) #b1)))) ; _witness_.check_assert_props_sv_48_52
; yosys-smt2-assert 2 _witness_.check_assert_props_sv_44_46 props.sv:44.9-44.37
(define-fun |watchdog_formal_a 2| ((state |watchdog_formal_s|)) Bool (or (= ((_ extract 0 0) (|watchdog_formal#15| state)) #b1) (not (= ((_ extract 0 0) (|watchdog_formal#20| state)) #b1)))) ; _witness_.check_assert_props_sv_44_46
; yosys-smt2-assert 3 _witness_.check_assert_props_sv_40_41 props.sv:40.9-40.35
(define-fun |watchdog_formal_a 3| ((state |watchdog_formal_s|)) Bool (or (= ((_ extract 0 0) (|watchdog_formal#14| state)) #b1) (not (= ((_ extract 0 0) (|watchdog_formal#19| state)) #b1)))) ; _witness_.check_assert_props_sv_40_41
; yosys-smt2-assert 4 _witness_.check_assert_props_sv_34_35 props.sv:34.7-34.34
(define-fun |watchdog_formal_a 4| ((state |watchdog_formal_s|)) Bool (or (= ((_ extract 0 0) (|watchdog_formal#16| state)) #b1) (not (= ((_ extract 0 0) (|watchdog_formal#18| state)) #b1)))) ; _witness_.check_assert_props_sv_34_35
(define-fun |watchdog_formal#23| ((state |watchdog_formal_s|)) Bool (= (|watchdog_formal#6| state) #b10)) ; $eq$props.sv:47$48_Y
(define-fun |watchdog_formal#24| ((state |watchdog_formal_s|)) Bool (and (or  (= ((_ extract 0 0) (|watchdog_formal#7| state)) #b1) false) (or  (|watchdog_formal#23| state) false))) ; $logic_and$props.sv:47$49_Y
(define-fun |watchdog_formal#25| ((state |watchdog_formal_s|)) Bool (not (or  (= ((_ extract 0 0) (|watchdog_formal#5| state)) #b1) false))) ; $logic_not$props.sv:47$50_Y
(define-fun |watchdog_formal#26| ((state |watchdog_formal_s|)) Bool (and (or  (|watchdog_formal#24| state) false) (or  (|watchdog_formal#25| state) false))) ; $logic_and$props.sv:47$51_Y
(define-fun |watchdog_formal#27| ((state |watchdog_formal_s|)) (_ BitVec 1) (ite (|watchdog_formal#26| state) #b1 #b0)) ; $procmux$61_Y
(define-fun |watchdog_formal#28| ((state |watchdog_formal_s|)) (_ BitVec 1) (ite (= ((_ extract 0 0) (|watchdog_formal#2| state)) #b1) (|watchdog_formal#27| state) #b0)) ; $assert$props.sv:48$52_EN
(define-fun |watchdog_formal#29| ((state |watchdog_formal_s|)) Bool (= (|watchdog_formal#9| state) #b01)) ; $eq$props.sv:43$43_Y
(define-fun |watchdog_formal#30| ((state |watchdog_formal_s|)) Bool (and (or  (= ((_ extract 0 0) (|watchdog_formal#10| state)) #b1) false) (or  (|watchdog_formal#29| state) false))) ; $logic_and$props.sv:43$44_Y
(define-fun |watchdog_formal#31| ((state |watchdog_formal_s|)) Bool (and (or  (|watchdog_formal#30| state) false) (or  (= ((_ extract 0 0) (|watchdog_formal#8| state)) #b1) false))) ; $logic_and$props.sv:43$45_Y
(define-fun |watchdog_formal#32| ((state |watchdog_formal_s|)) (_ BitVec 1) (ite (|watchdog_formal#31| state) #b1 #b0)) ; $procmux$65_Y
(define-fun |watchdog_formal#33| ((state |watchdog_formal_s|)) (_ BitVec 1) (ite (= ((_ extract 0 0) (|watchdog_formal#2| state)) #b1) (|watchdog_formal#32| state) #b0)) ; $assert$props.sv:44$46_EN
(define-fun |watchdog_formal#34| ((state |watchdog_formal_s|)) Bool (not (or  (= ((_ extract 0 0) (|watchdog_formal#12| state)) #b1) (= ((_ extract 1 1) (|watchdog_formal#12| state)) #b1)))) ; $eq$props.sv:39$37_Y
(define-fun |watchdog_formal#35| ((state |watchdog_formal_s|)) Bool (and (or  (= ((_ extract 0 0) (|watchdog_formal#13| state)) #b1) false) (or  (|watchdog_formal#34| state) false))) ; $logic_and$props.sv:39$38_Y
(define-fun |watchdog_formal#36| ((state |watchdog_formal_s|)) Bool (not (or  (= ((_ extract 0 0) (|watchdog_formal#11| state)) #b1) false))) ; $logic_not$props.sv:39$39_Y
(define-fun |watchdog_formal#37| ((state |watchdog_formal_s|)) Bool (and (or  (|watchdog_formal#35| state) false) (or  (|watchdog_formal#36| state) false))) ; $logic_and$props.sv:39$40_Y
(define-fun |watchdog_formal#38| ((state |watchdog_formal_s|)) (_ BitVec 1) (ite (|watchdog_formal#37| state) #b1 #b0)) ; $procmux$69_Y
(define-fun |watchdog_formal#39| ((state |watchdog_formal_s|)) (_ BitVec 1) (ite (= ((_ extract 0 0) (|watchdog_formal#2| state)) #b1) (|watchdog_formal#38| state) #b0)) ; $assert$props.sv:40$41_EN
(define-fun |watchdog_formal#40| ((state |watchdog_formal_s|)) (_ BitVec 1) (ite (= ((_ extract 0 0) (|watchdog_formal#1| state)) #b1) #b0 #b1)) ; $assert$props.sv:34$35_EN
(define-fun |watchdog_formal#41| ((state |watchdog_formal_s|)) Bool (not (or  (= ((_ extract 0 0) (|watchdog_formal#0| state)) #b1) (= ((_ extract 1 1) (|watchdog_formal#0| state)) #b1)))) ; $eq$props.sv:34$36_Y
(define-fun |watchdog_formal#42| ((state |watchdog_formal_s|)) Bool (= (|watchdog_formal#0| state) #b01)) ; $eq$props.sv:40$42_Y
(define-fun |watchdog_formal#43| ((state |watchdog_formal_s|)) Bool (or  (|watchdog_formal#41| state) false  (|watchdog_formal#42| state) false)) ; $logic_or$props.sv:52$57_Y
(define-fun |watchdog_formal#44| ((state |watchdog_formal_s|)) Bool (= (|watchdog_formal#0| state) #b10)) ; $eq$props.sv:44$47_Y
(define-fun |watchdog_formal#45| ((state |watchdog_formal_s|)) Bool (or  (|watchdog_formal#43| state) false  (|watchdog_formal#44| state) false)) ; $logic_or$props.sv:52$59_Y
(define-fun |watchdog_formal_a| ((state |watchdog_formal_s|)) Bool (and
  (|watchdog_formal_a 0| state)
  (|watchdog_formal_a 1| state)
  (|watchdog_formal_a 2| state)
  (|watchdog_formal_a 3| state)
  (|watchdog_formal_a 4| state)
  (|watchdog_a| (|watchdog_formal_h dut| state))
))
(define-fun |watchdog_formal_u| ((state |watchdog_formal_s|)) Bool (and
  (|watchdog_formal_u 0| state)
  (|watchdog_formal_u 1| state)
  (|watchdog_u| (|watchdog_formal_h dut| state))
))
(define-fun |watchdog_formal_i| ((state |watchdog_formal_s|)) Bool (and
  (= (= ((_ extract 0 0) (|watchdog_formal#2| state)) #b1) false) ; f_past_valid
  (= (= ((_ extract 0 0) (|watchdog_formal#14| state)) #b1) true) ; $auto$async2sync.cc:110:execute$123
  (= (= ((_ extract 0 0) (|watchdog_formal#15| state)) #b1) true) ; $auto$async2sync.cc:110:execute$117
  (= (= ((_ extract 0 0) (|watchdog_formal#16| state)) #b1) true) ; $auto$async2sync.cc:110:execute$111
  (= (= ((_ extract 0 0) (|watchdog_formal#17| state)) #b1) true) ; $auto$async2sync.cc:110:execute$105
  (= (= ((_ extract 0 0) (|watchdog_formal#18| state)) #b1) false) ; $auto$async2sync.cc:101:execute$125
  (= (= ((_ extract 0 0) (|watchdog_formal#19| state)) #b1) false) ; $auto$async2sync.cc:101:execute$119
  (= (= ((_ extract 0 0) (|watchdog_formal#20| state)) #b1) false) ; $auto$async2sync.cc:101:execute$113
  (= (= ((_ extract 0 0) (|watchdog_formal#21| state)) #b1) false) ; $auto$async2sync.cc:101:execute$107
  (|watchdog_i| (|watchdog_formal_h dut| state))
))
(define-fun |watchdog_formal_h| ((state |watchdog_formal_s|)) Bool (and
  (= (|watchdog_formal_is| state) (|watchdog_is| (|watchdog_formal_h dut| state)))
  (= (|watchdog_formal#0| state) (|watchdog_n state| (|watchdog_formal_h dut| state))) ; watchdog.state
  (= (= ((_ extract 0 0) (|watchdog_formal#1| state)) #b1) (|watchdog_n reset_n| (|watchdog_formal_h dut| state))) ; watchdog.reset_n
  (= (= ((_ extract 0 0) (|watchdog_formal#3| state)) #b1) (|watchdog_n error_flag| (|watchdog_formal_h dut| state))) ; watchdog.error_flag
  (= (= ((_ extract 0 0) (|watchdog_formal#4| state)) #b1) (|watchdog_n clk| (|watchdog_formal_h dut| state))) ; watchdog.clk
  (|watchdog_h| (|watchdog_formal_h dut| state))
))
(define-fun |watchdog_formal_t| ((state |watchdog_formal_s|) (next_state |watchdog_formal_s|)) Bool (and
  (= (|watchdog_formal#28| state) (|watchdog_formal#21| next_state)) ; $auto$async2sync.cc:104:execute$109 $auto$async2sync.cc:101:execute$107
  (= (|watchdog_formal#33| state) (|watchdog_formal#20| next_state)) ; $auto$async2sync.cc:104:execute$115 $auto$async2sync.cc:101:execute$113
  (= (|watchdog_formal#39| state) (|watchdog_formal#19| next_state)) ; $auto$async2sync.cc:104:execute$121 $auto$async2sync.cc:101:execute$119
  (= (|watchdog_formal#40| state) (|watchdog_formal#18| next_state)) ; $auto$async2sync.cc:104:execute$127 $auto$async2sync.cc:101:execute$125
  (= (ite (|watchdog_formal#45| state) #b1 #b0) (|watchdog_formal#17| next_state)) ; $auto$async2sync.cc:112:execute$106 $auto$async2sync.cc:110:execute$105
  (= (ite (|watchdog_formal#41| state) #b1 #b0) (|watchdog_formal#16| next_state)) ; $auto$async2sync.cc:112:execute$112 $auto$async2sync.cc:110:execute$111
  (= (ite (|watchdog_formal#44| state) #b1 #b0) (|watchdog_formal#15| next_state)) ; $auto$async2sync.cc:112:execute$118 $auto$async2sync.cc:110:execute$117
  (= (ite (|watchdog_formal#42| state) #b1 #b0) (|watchdog_formal#14| next_state)) ; $auto$async2sync.cc:112:execute$124 $auto$async2sync.cc:110:execute$123
  (= (|watchdog_formal#1| state) (|watchdog_formal#13| next_state)) ; $procdff$86 \_witness_.anyinit_procdff_86
  (= (|watchdog_formal#0| state) (|watchdog_formal#12| next_state)) ; $procdff$87 \_witness_.anyinit_procdff_87
  (= (|watchdog_formal#3| state) (|watchdog_formal#11| next_state)) ; $procdff$88 \_witness_.anyinit_procdff_88
  (= (|watchdog_formal#1| state) (|watchdog_formal#10| next_state)) ; $procdff$89 \_witness_.anyinit_procdff_89
  (= (|watchdog_formal#0| state) (|watchdog_formal#9| next_state)) ; $procdff$90 \_witness_.anyinit_procdff_90
  (= (|watchdog_formal#3| state) (|watchdog_formal#8| next_state)) ; $procdff$91 \_witness_.anyinit_procdff_91
  (= (|watchdog_formal#1| state) (|watchdog_formal#7| next_state)) ; $procdff$92 \_witness_.anyinit_procdff_92
  (= (|watchdog_formal#0| state) (|watchdog_formal#6| next_state)) ; $procdff$93 \_witness_.anyinit_procdff_93
  (= (|watchdog_formal#3| state) (|watchdog_formal#5| next_state)) ; $procdff$94 \_witness_.anyinit_procdff_94
  (= #b1 (|watchdog_formal#2| next_state)) ; $auto$async2sync.cc:104:execute$103 \f_past_valid
  (|watchdog_t| (|watchdog_formal_h dut| state) (|watchdog_formal_h dut| next_state))
)) ; end of module watchdog_formal
; yosys-smt2-topmod watchdog_formal
; end of yosys output
